
  23    0


   0  11 2 3 4 5 7 8 9 10 20 21 22 
   5   2 13 6 
   6   2 14 6 
   9   3 19 13 11 
   9   3 18 17 11 
   2   2 12 11 
  10   2 16 12 
   7   1 15 
   8   1 14 
   7   1 13 
   7   1 23
   7   1 23
   6   1 23
   4   1 23
   2   1 23
   6   1 23
   2   1 23
   9   1 23
   9   1 23
   2   1 23
   6   1 23
   9   1 23
   0   0 
